Cars = 1..200;
Options = 1..5;
Classes = 1..22;
sequenceMinCapacity = [0, 0, 0, 0, 0];
sequenceMaxCapacity = [1, 2, 1, 2, 1];
sequenceSize = [2, 3, 3, 5, 5];
numOrdered = [8, 47, 3, 2, 27, 33, 3, 2, 11, 3, 5, 1, 1, 28, 1, 9, 1, 8, 2, 2, 2, 1];
classHasOption = [|false,  true,  true, false, false
                  |false, false, false,  true, false
                  |false,  true, false,  true,  true
                  | true,  true,  true, false, false
                  |false, false,  true, false, false
                  | true, false, false, false, false
                  | true, false, false, false,  true
                  | true,  true, false, false,  true
                  | true,  true, false, false, false
                  |false, false,  true,  true, false
                  | true, false,  true, false, false
                  | true, false,  true, false,  true
                  |false,  true,  true,  true,  true
                  |false,  true, false, false, false
                  |false, false,  true, false,  true
                  |false,  true, false,  true, false
                  | true,  true, false,  true,  true
                  |false, false, false, false,  true
                  |false,  true,  true,  true, false
                  | true,  true, false,  true, false
                  | true, false, false,  true, false
                  |false, false, false,  true,  true|];
optionOrdering = [3, 4, 1, 5, 2];
